32      4       
16      17      14      11      
0       0       0       0       0       2       2       3       
8       1       4       7       4       3       6       5       4       
3       1       1       6       1       3       7       6       5       
9       7       1       1       5       3       13      9       7       
6       7       11      6       1       7       23      19      15      13      12      11      9       
3       1       9       6       8       5       24      20      19      14      8       
1       10      1       2       5       11      24      23      22      21      19      18      15      14      12      11      10      
4       8       6       3       1       10      23      22      21      17      16      15      13      12      11      10      
7       2       2       4       4       8       24      21      20      18      17      16      14      10      
6       1       8       4       1       5       31      28      27      26      25      
5       7       6       9       4       5       31      28      27      26      25      
10      2       1       2       1       5       31      28      27      26      25      
9       3       4       4       3       5       31      28      27      26      25      
1       1       9       7       5       4       31      28      27      26      
10      8       2       6       2       4       28      27      26      25      
3       1       1       1       1       4       31      28      26      25      
4       1       11      1       1       4       28      27      26      25      
3       4       5       1       5       4       31      28      26      25      
6       5       1       1       1       4       31      30      27      26      
8       1       1       1       4       4       31      30      27      26      
8       1       3       4       1       3       27      26      25      
6       1       11      2       1       3       27      26      25      
2       3       8       5       5       2       28      26      
9       1       3       4       5       2       27      25      
4       8       1       3       1       2       30      29      
5       3       1       1       1       1       29      
4       6       8       1       3       1       29      
1       11      3       1       1       1       30      
10      1       1       10      1       1       32      
1       11      1       1       6       1       32      
10      3       4       1       1       1       32      
0       0       0       0       0       0       
